30 72
16 119
25 69
15 182
78 31
46 36
87 63
23 114
70 40
5 190
1 60
51 27
12 157
14 116
90 34
38 72
28 106
54 11
29 102
8 165
65 77
30 31
44 39
2 182
21 165
10 147
7 119
20 13
40 51
82 45
13 13
40 30
6 149
43 50
43 15
10 182
40 54
33 104
28 82
71 20
13 24
34 68
25 184
10 17
94 4
29 136
23 81
78 25
52 113
2 194
77 25
31 3
61 84
18 70
94 32
5 179
4 20
19 195
18 42
48 117
22 15
22 177
29 29
29 139
1 38
25 2
39 22
33 2
11 113
24 31
52 46
5 57
99 27
94 50
29 71
30 6
8 91
28 187
4 129
94 58
5 105
44 18
15 144
27 6
42 89
7 34
93 37
26 7
61 31
40 56
10 74
54 5
31 13
82 17
39 42
33 98
88 15
31 124
9 96
7 178
